set VariabiliMinZero 	:= x3;
set VariabiliMaggZero 	:= x1,x2;
set Variabili 			:= x1,x2,x3;
set VincoliMinori 		:= r1;
set VincoliMaggiori		:= r2;
set VincoliUguali		:= ;
set Vincoli 			:= r1,r2;

param b :=
r1  11
r2  9
;

param c :=
x1   2
x2  6
x3   -1
;

param a :
	x1  x2  x3  =
r1   2   -5   5 
r2   4  -3   3
;